(set-logic QF_S)
(declare-const x String)
(assert (str.in.re x (re.inter  (re.++ (re.+  (re.union  (str.to.re "\u{40}") (re.union  (str.to.re "\u{5d}") (re.union  (str.to.re "\u{2b}") (re.union  (str.to.re "\u{2d}") (re.union  (str.to.re "\u{2e}") (re.union  (str.to.re "\u{5e}") (re.union  (str.to.re "\u{5f}") (re.union  (str.to.re "\u{7b}") (re.union  (str.to.re "\u{21}") (re.union  (str.to.re "\u{23}") (re.union  (str.to.re "\u{24}") (re.union  (str.to.re "\u{25}") (re.union  (str.to.re "\u{26}") (re.union  (str.to.re "\u{28}") (re.union  (str.to.re "\u{29}") (re.union  (str.to.re "\u{2a}") (re.union  (str.to.re "\u{2b}") (re.union  (str.to.re "\u{2c}") (re.union  (str.to.re "\u{3a}") (re.union  (str.to.re "\u{3b}") (re.union  (str.to.re "\u{7c}") (re.union  (str.to.re "\u{3c}") (re.union  (str.to.re "\u{3d}") (re.union  (str.to.re "\u{7d}") (re.union  (str.to.re "\u{7e}") (re.union  (str.to.re "\u{3e}") (re.union  (str.to.re "\u{3f}")  (str.to.re "\u{5b}")))))))))))))))))))))))))))) ) (re.+ (re.union (re.range "\u{30}" "\u{39}") (re.range "\u{41}" "\u{5a}") (re.range "\u{5f}" "\u{5f}") (re.range "\u{61}" "\u{7a}") (re.range "\u{aa}" "\u{aa}") (re.range "\u{b5}" "\u{b5}") (re.range "\u{ba}" "\u{ba}") (re.range "\u{c0}" "\u{d6}") (re.range "\u{d8}" "\u{f6}") (re.range "\u{f8}" "\u{ff}")) )) (re.+  (re.union  (str.to.re "\u{40}") (re.union  (str.to.re "\u{5d}") (re.union  (str.to.re "\u{2b}") (re.union  (str.to.re "\u{2d}") (re.union  (str.to.re "\u{2e}") (re.union  (str.to.re "\u{5e}") (re.union  (str.to.re "\u{5f}") (re.union  (str.to.re "\u{7b}") (re.union  (str.to.re "\u{21}") (re.union  (str.to.re "\u{23}") (re.union  (str.to.re "\u{24}") (re.union  (str.to.re "\u{25}") (re.union  (str.to.re "\u{26}") (re.union  (str.to.re "\u{28}") (re.union  (str.to.re "\u{29}") (re.union  (str.to.re "\u{2a}") (re.union  (str.to.re "\u{2b}") (re.union  (str.to.re "\u{2c}") (re.union  (str.to.re "\u{3a}") (re.union  (str.to.re "\u{3b}") (re.union  (str.to.re "\u{7c}") (re.union  (str.to.re "\u{3c}") (re.union  (str.to.re "\u{3d}") (re.union  (str.to.re "\u{7d}") (re.union  (str.to.re "\u{7e}") (re.union  (str.to.re "\u{3e}") (re.union  (str.to.re "\u{3f}")  (str.to.re "\u{5b}")))))))))))))))))))))))))))) )  (re.++  (str.to.re "\u{5f}") (re.* (re.union (re.range "\u{00}" "\u{09}") (re.range "\u{0b}" "\u{0c}") (re.range "\u{0e}" "\u{84}") (re.range "\u{86}" "\u{ff}")) )) )))
(check-sat)
(get-model)